p cnf 27 69
a 1 19 0
e 2 3 4 5 6 7 8 9 10 11 12 13 14 15 16 17 18 20 21 22 23 24 25 26 27 0
2 -1 0
2 -1 0
1 -2 0
4 1 0
4 3 0
-1 -3 -4 0
5 2 0
5 -4 0
-2 4 -5 0
7 1 0
7 -6 0
-1 6 -7 0
-5 -7 -8 0
5 7 -8 0
-5 7 8 0
5 -7 8 0
10 -9 0
10 4 0
9 -4 -10 0
-12 -6 0
-12 9 0
6 -9 12 0
-13 -11 0
-13 -12 0
11 12 13 0
-14 -10 0
-14 13 0
10 -13 14 0
-8 14 -15 0
8 -14 -15 0
-8 -14 15 0
8 14 15 0
-9 11 -16 0
9 -11 -16 0
-9 -11 16 0
9 11 16 0
18 -1 0
18 -3 0
1 3 -18 0
-18 -19 -20 0
18 19 -20 0
-18 19 20 0
18 -19 20 0
21 18 0
21 -20 0
-18 20 -21 0
22 -17 0
22 21 0
17 -21 -22 0
-16 22 -23 0
16 -22 -23 0
-16 -22 23 0
16 22 23 0
-25 2 0
-25 -24 0
-2 24 25 0
-26 23 0
-26 25 0
-23 -25 26 0
27 -15 0
27 -26 0
15 26 -27 0
3 22 -26 0
17 8 -10 5 20 0
-5 -14 6 -26 -2 0
21 7 -20 0
-10 -24 23 16 14 18 -19 0
18 -7 -26 -17 0
27 0
